12575
1 0 0 0 0 1 0 0 0 0 0 1 0 0 1 0 0 1 0 1 1 0 0 0 1 0 0 0 0 0 
20 11 20 19 19 5 19 24 14 17 24 20 19 20 19 14 17 0 5 11 14 0 5 17 5 20 19 24 5 24 5 11 20 11 20 20 24 24 0 14 0 20 24 14 24 14 0 20 11 14 5 19 14 5 14 20 17 11 17 14 0 5 20 11 11 11 24 0 5 24 20 20 11 0 24 19 24 20 14 24 20 11 20 0 19 0 0 0 20 5 14 24 0 11 17 5 14 19 5 20 20 17 14 11 19 5 17 11 14 14 17 14 0 11 11 24 24 24 24 24 5 20 11 20 20 0 5 24 0 5 0 11 24 24 14 20 17 11 20 17 0 20 20 14 20 11 11 5 14 5 
